SCIP version 5.0.0 [precision: 8 byte] [memory: block] [mode: optimized] [LP solver: NONE] [GitHash: 3bbd232]
Copyright (C) 2002-2017 Konrad-Zuse-Zentrum fuer Informationstechnik Berlin (ZIB)

External codes: 
  Readline EditLine w  GNU library for command line editing (gnu.org/s/readline)
  CppAD 20160000.1     Algorithmic Differentiation of C++ algorithms developed by B. Bell (www.coin-or.org/CppAD)
  ZLIB 1.2.5           General purpose compression library by J. Gailly and M. Adler (zlib.net)
  GMP 6.1.2            GNU Multiple Precision Arithmetic Library developed by T. Granlund (gmplib.org)

user parameter file <scip.set> not found - using default parameters

read problem <../../Split_data/output/seismic-bumps/2/4_sample_seismic-bumps.logreg>
============

File name	:	../../Split_data/output/seismic-bumps/2/4_sample_seismic-bumps.logreg
Problem name 	:	4_sample_seismic-bumps
Number of data	:	2067
Number of var	:	21
The given data has linear dependence
4 sets of column vector are linearly dependent:
{ 2 3}, { 4 5 6}, { 7 8}, { 13 14 15}, 

[dim=1] time: 0.0387
[dim=2] time: 0.075006
[dim=3] time: 0.112428
[dim=4] time: 0.148104
[dim=5] time: 0.181441
[dim=6] time: 0.212876
[dim=7] time: 0.243992
[dim=8] time: 0.272265
[dim=9] Time of forward = 0.29831sec.
AIC: 907.061
k: 8

[dim=17] time: 0.374023
[dim=16] time: 0.706196
[dim=15] time: 2.84962
[dim=14] time: 3.7127
[dim=13] time: 4.237
[dim=12] time: 4.40459
[dim=11] time: 4.88375
[dim=10] time: 5.13825
[dim=9] Time of backward = 5.57352sec.
AIC: 901.959
k: 10
